17	4	3
25	20	31	29	41	35	13	
0	0	0	0	0	4	6	5	8	8	3	3	2	3	4
6	9	1	4	0	4	2	7	10	9	9	3	5	14	15
4	0	4	0	0	7	10	9	4	4	7	2	6	8
1	9	0	5	0	9	9	4	6	5	10	3	7	12	17
8	8	2	1	0	9	3	5	1	10	4	2	9	17
175	3	5	0	0	10	4	10	5	1	7	3	10	11	17
100	9	3	0	0	8	4	9	4	4	7	2	13	17
150	3	3	0	0	3	1	6	2	4	10	2	10	17
200	0	7	3	9	8	2	9	2	8	3	1	17
200	0	0	4	0	1	6	5	6	6	5	1	17
100	0	0	0	7	9	6	8	8	1	9	1	17
200	0	0	0	1	5	8	3	3	2	6	1	17
5	0	2	5	0	10	4	6	6	5	10	1	17
2	3	0	3	0	5	3	2	3	4	9	1	17
8	4	0	1	0	6	5	4	10	10	10	2	16	17
6	2	3	0	0	5	9	6	3	6	6	1	17
0	0	0	0	0	2	10	4	4	3	6	0
